db/data/319109223258471783131363173513059516691.z3.out
solvers/z3/run.sh: line 2:  6177 Killed                  z3 -smt2 $1
-------------------
90.623933582
